(set-logic HORN)
(declare-fun inv ((_ BitVec 32) (_ BitVec 32) ) Bool)
(assert (forall ((x (_ BitVec 32)) (y (_ BitVec 32)))
       (=> ( and ( = x (_ bv1 32) ) ( = y (_ bv1 32) ) ) (inv x y))))
(assert (forall ((x (_ BitVec 32)) (y (_ BitVec 32)) (x! (_ BitVec 32)) (y! (_ BitVec 32)))
       (=> (and (inv x y) ( and ( = x! ( bvadd x y ) ) ( = y! ( bvadd x y ) ) )) (inv x! y!))))
(assert (forall ((x (_ BitVec 32)) (y (_ BitVec 32)))
       (=> (inv x y) ( bvsge y (_ bv1 32) ))))
(check-sat)
